(set-logic LIA)
(declare-fun P () Int)
(assert (and (<= 0 P) (forall ((x0 Int) (x1 Int)) (=> (and (<= 0 x0) (<= 0 x1)) (not (= (+ (* x0 349) (* x1 353)) P)))) (forall ((R Int)) (=> (forall ((x0 Int) (x1 Int)) (=> (and (<= 0 x0) (<= 0 x1)) (not (= (+ (* x0 349) (* x1 353)) R)))) (<= R P)))))
(check-sat)
(exit)
